NAME: Tnm142
COMMENT: Imported from tnm log files (not double checked for validity should be 2118758]
TYPE: TOUR
DIMENSION: 142
TOUR_SECTION:
1
116
4
7
10
13
16
119
122
125
128
131
134
19
22
25
28
31
34
37
40
43
46
49
52
55
58
61
64
67
70
73
76
79
82
85
88
91
94
97
100
103
120
117
106
109
112
2
5
8
11
14
17
20
23
26
29
32
35
38
41
44
47
123
126
129
132
135
138
141
142
140
137
139
136
133
130
127
124
50
53
56
59
62
65
68
71
74
77
80
83
86
89
92
95
98
121
118
101
104
107
115
110
113
3
6
9
12
15
18
21
24
27
30
33
36
39
42
45
48
51
54
57
60
63
66
69
72
75
78
81
84
87
90
93
96
99
102
105
108
111
114
-1
EOF
